Set parameter TokenServer to value "opt-license.discovery.wisc.edu"
Set parameter PreCrush to value 1
Set parameter LazyConstraints to value 1
Set parameter TimeLimit to value 600
Gurobi Optimizer version 9.5.1 build v9.5.1rc2 (linux64)
Thread count: 40 physical cores, 80 logical processors, using up to 32 threads
Optimize a model with 5041 rows, 4900 columns and 19530 nonzeros
Model fingerprint: 0xe999031a
Variable types: 0 continuous, 4900 integer (4900 binary)
Coefficient statistics:
  Matrix range     [1e+00, 2e+03]
  Objective range  [1e+00, 1e+01]
  Bounds range     [1e+00, 1e+00]
  RHS range        [1e+00, 6e+00]
Presolve removed 70 rows and 0 columns
Presolve time: 0.08s
Presolved: 4971 rows, 4900 columns, 19530 nonzeros
Variable types: 0 continuous, 4900 integer (4900 binary)

Root relaxation: objective 9.205411e+01, 1461 iterations, 0.09 seconds (0.07 work units)

    Nodes    |    Current Node    |     Objective Bounds      |     Work
 Expl Unexpl |  Obj  Depth IntInf | Incumbent    BestBd   Gap | It/Node Time

     0     0   92.05411    0  176          -   92.05411      -     -    1s
     0     0   92.21066    0  202          -   92.21066      -     -    2s
     0     0   92.21418    0  202          -   92.21418      -     -    3s
     0     0   92.35505    0  191          -   92.35505      -     -    4s
     0     0   92.35536    0  191          -   92.35536      -     -    5s
     0     0   92.40652    0  220          -   92.40652      -     -    5s
H    0     0                      93.3597277   92.40652  1.02%     -    6s
     0     0   92.40784    0  208   93.35973   92.40784  1.02%     -    6s
     0     0   92.40784    0  209   93.35973   92.40784  1.02%     -    7s
     0     0   92.40857    0  218   93.35973   92.40857  1.02%     -    8s
     0     0   92.40857    0  141   93.35973   92.40857  1.02%     -    9s
     0     0   92.40857    0   94   93.35973   92.40857  1.02%     -   10s
     0     0   92.40857    0  164   93.35973   92.40857  1.02%     -   10s
     0     0   92.40987    0  164   93.35973   92.40987  1.02%     -   11s
     0     0   92.41229    0  165   93.35973   92.41229  1.01%     -   12s
     0     0   92.41326    0  167   93.35973   92.41326  1.01%     -   12s
     0     0   92.41326    0  167   93.35973   92.41326  1.01%     -   13s
H    0     0                      92.5378732   92.41326  0.13%     -   14s
     0     0     cutoff    0        92.53787   92.53787  0.00%     -   14s

Explored 1 nodes (3023 simplex iterations) in 14.88 seconds (0.73 work units)
Thread count was 32 (of 80 available processors)

Solution count 3: 92.5379 92.5379 93.3597 

Optimal solution found (tolerance 1.00e-04)
Best objective 9.253787324945e+01, best bound 9.253787324945e+01, gap 0.0000%

User-callback calls 791, time in user-callback 13.00 sec
cuts :  0
